proyfinal/src/viki/013/experimentInOfficeAgust.take6.output/08f62ae7-ab4a-4f39-8b38-0b4a732f311f.als.dat
{'cnf.clauses': '118081',
 'cnf.totvars': '69608',
 'conflict literals': '6',
 'conflicts': '6',
 'decisions': '5055',
 'memused.mb': '16.71',
 'outcome': 'UNSAT',
 'propagations': '27689',
 'restarts': '1',
 'solver.msecs': 34,
 'task.msecs': 95}
