proyfinal/src/viki/013/experimentInOfficeAgust.take6.output/08f62ae7-ab4a-4f39-8b38-0b4a732f311f.als.out
Reading from standard input... Use '--help' for help.
============================[ Problem Statistics ]=============================
|                                                                             |
|  Number of variables:         69608                                         |
|  Number of clauses:          118081                                         |
|  Parse time:                   0.03 s                                       |
|                                                                             |
============================[ Search Statistics ]==============================
| Conflicts |          ORIGINAL         |          LEARNT          | Progress |
|           |    Vars  Clauses Literals |    Limit  Clauses Lit/Cl |          |
===============================================================================
===============================================================================
restarts              : 1
conflicts             : 6              (173 /sec)
decisions             : 5055           (0.00 % random) (145468 /sec)
propagations          : 27689          (796806 /sec)
conflict literals     : 6              (0.00 % deleted)
Memory used           : 16.71 MB
CPU time              : 0.03475 s

UNSATISFIABLE
